     60      4     45    323     20
     33     45     36     45
     47     37     21     15     36     10     35     26      4     19     18     12     29     10     34      3      9     16     10     56     53     55      1     57     11     30     17     48     11     58      2     38     51     55     45      3     39     20      3     27     35     32     49     36     39      6     35     14     42     49     56      7     32     44     23     15     34     41     41     13     21      7     55     59     37     28     40      8      1     52     54     45     25     23     58     40     46      8     55     22     12     23     11     24     15      2     33     49     24     57      0     50     38     43     34     29     35      6     37     56     11     25     35     22     28     16     54     10     51     25     41     17     39      4     13      7     35     40      9     21     31     21     18     19     20      7     48     44     21     46     58     15     27     20     37     26     52     53     58     37     43     35     12     42     40     19     21     50     25      7     34     21     41     48     12     33     42      6     17     57     31     54      6     55      8     27     36     56     24     56      2     23     10      7     21     12     44     39     27      8     53     57     59     25     16     47     50     14     46     57     13     42     18      5     57     46     39     48     47     56     58     53     49      2     31     11     44     24      2     12     25      1     21      5      8      9     58     47     18      2     28     31     20     38     40     56     35      6     32     19     46      1     52      2      5      9     11     32     21     45     42     54     36     26     52      1     35     49     48     46     51     34     26     13     23      5     20     59     36     48     38     21     59     45     33     24     20     24      1     31     45     25     16      2     34      7      9     57     27     31     24      6     27     28     40     16     50     46     29     57     12     45     59     22     35      0      4     57     23     21     13     26     56     42     48     32      0      5     12     59     47     45      3     40     57      9     50     34     16     56      5     33      9     14     43     58      7     23     48     49     16     37     25     36     40     19     33     29     14     23     36      9     11     41      0     57     53     48     46     27      0     13     11     25     19     48     45     56      0     14     35     24     43     42     27     44     25     45     37     10      0      6     26     31     20     34     49      9     21     55     53      2     54      5      0     53     46     10     44     49     54     57     58     55     17     16     47     13     10     50      0     30     57     42      0     33     38     37     43     58     27     39     12     11     50     18      5     55     51      3     46     10     23     57     47     34     43     30     37     32     37      4     46     33     55      9     34      0     47     48     52     42     10     37      0     55     38     13     35     23     14     32     44     48      8     34     42     55     23     30     39      8     48     32      3      1      6     25     45     19      3     50      8      9     58     52      4     35     24     47     41      9     35     26     23     19     58     49     47     38     16     21     12      0     32      1      9     42     52     35     42     20     17     56     50     48     14     34     47     41     27     36     42     35      7     45     47     43     54     30
     62     56    113    116      4    142    -12    101    135    140     -6     90     95    103      4      8     74    -22    -18    121     74    104     41    -11    -19     77     95     52     40    136     79     38     28     80     -9     34     66    -15     92     10     58     -4     21      8     11    -23     55     -9     10     -2     80     55     82     64     80     24     51     34     16      3     87     77     51     54    -18     10     76      6     78     17     75     89     66      4     -7     28     92     91     81      9
      8     13     10     12     10	    182     67     31     34      6      0    119      0      0     89      0      0     78      0      0      0      0      0      0      0      0      0      0     58      0     80      0     10      0      0      0      0      0     73     22      0      0      0     14      0      0    -21      0      0      0      0    -26      0      0      0      0      0      0      0     43      8      0      0      0      0      0      0      0      0      0
     10     13     14     15     13	    362    147     16     16      2    119      0      0      0      0      0      0      0      0      0      0      0      0      0      0    120      0      0    -26      0      7      0      0      0    188      0     55      0      0      0      0      0      0      0    -19      0      0      0      0      0      0    -52      0      0      0      0      0      0      0      0      0      0      0     -4      0    -49      0      0      0      0
     11     12     15     12     13	    188     73     14     43     10      0      0      0     32      0      0      0    -23      0      0    -24      0    139      0      0    124      0    -27      0      0      0      0      0      0      0      0      0      0      0      0      0      0      0      0      0      0      0     35      0      0      0      0      0      0      0      0      0      0      0     -8      0      0      0      0     17      0      0      0      0      0
      7     10     15     14     14	    225    137     33     36     10      0      0     32      0      0      0      0      0      0      0      0      0     84      0      0    177      0      0      0      0      0      0      0    -12      0      0     -7     28      0      0     20      0      0      0      0      0    -11      0     56      0      0      0      0      1      0      0      0      0      0      0      0      0      0      0      0     72      0     30     -8      0
      8     11     12     13     14	    116     52     44     44      4     89      0      0      0      0      0      0      0      0      0     23      0      0      0     16      0     42     63      0      0     17      0      0     77      0     73      0      0      0      0      0      0     22      0      0     20     23      0      0      0      0      0     92      0      0      0     70      0      0      0      0      0      0     82      0      0     21      0      0      0
      6     13     13     12     12	    355    127     15     17      1      0      0      0      0      0      0      0     -7      0      0      0      0      0      0      0     73    104      0     79      0      0      0      0    115      0      0      0      0    207      0      0      0      0      0      0    -15      0      0      0      0      0      0      0    -32      0      0      0      0    -57      0      0    143      0      0      0      0      0      0      0      0
     12     12     14     11     10	    454    259     28     28      4      0      0      0      0      0      0      0      0      0      0    298      0    192     87      0    237      0      0      0      0      0      0      0      0      0      0      0     56      0      0      0      0      0      0      0      0    279      0      0     86      0      0      0      0      0      0    106      0      0      0      0      0    260      0      0      0      0      0      0      0
      6     13     15     13     11	    461    144     12     38      6     78      0    -23      0      0     -7      0      0      0     28      0      0      0      0      0      0      0      0    -29      0    -24      0      0      0      0    193      0      0     68      0      0      0      0      0      0      0      0      0      0      0     56      0      0      0      0      0      0      0      0      0      0      0      0      0      0    -24      0      0      0      0
     10     12     14     10     10	    308    124     26     39      4      0      0      0      0      0      0      0      0      0      0    199      0      0      0    -16      0      0      0      0    213      0      0      0      0      0      0      0      0      0      0      0      0     84      0      0     41      0      0      0      0     85      0      0      0      0    142      0     73      0      0      0     12      0      0     92      0      0      0      0      0
      8     10     15     10     12	    125     66     16     36      2      0      0      0      0      0      0      0     28      0      0      0      0      0     74      0      0      0      0      0      0      0      0      0     13    -22      0      0      0      0      0      0      0      0      0     43      0      0      0      0      0     58      0     88      0      0      0      0      0      0      0      0      0      0     37      0      0      0    -12      6      0
     12     13     14     10     14	    491    311     14     45      7      0      0    -24      0     23      0    298      0    199      0      0      0      0      0      0      0      0      0    194      0    -44    102      0      0      0      0     -2      0      0      0      0      0      0      0      0      0      0      0    126      0      0      0     37     89      0      0     37      0      0     63      0      0     56    -20     33     39      0      0      0      0
     10     13     13     13     15	    286    102     25     29     10      0      0      0      0      0      0      0      0      0      0      0      0      0      0      0      0      0     -7      0      0      0      0      0     92      0      0     11    -47      0      5      0      0      0      0      0      0      0    -14      0      0     62      0      0    194      0      0      0    -20      0      0      0      0      0      0      0      0      0      0      0      0
      8     14     15     14     10	    372     64     20     30      7      0      0    139     84      0      0    192      0      0      0      0      0      0      0    -14      0      0      0      0      0      0      0      0      0      0    272      0      0      0      0      0      0      0      0     95      0      0      0      0      0      0      0      0      0      0      0      0      0      0      0      0    124      0      0     22      0      0      0      0      0
      7     12     15     12     13	    139     95     26     27      5      0      0      0      0      0      0     87      0      0     74      0      0      0      0      0      0      0      0      0      0      0      0      0      0      0      0      0      0      0      0     24      0      0      0      0      0     63      0      0    -26      0      0      0      0      0      0      0      0      0      0      0      0      0      0      0      0      0      0      0     47
     11     10     10     15     10	    187     89     34     37      2      0      0      0      0     16      0      0      0    -16      0      0      0    -14      0      0      0    119      0      2     96     98      0     83      0      0      0      0      0      0      0      0      0      0      0      0     -8      0      0      0      0      0      0      0      0      0      0      0      0      0      0     52     66     28      0      0    145      0      0      0      0
     12     10     15     12     14	    485    303     25     26      1      0    120    124    177      0     73    237      0      0      0      0      0      0      0      0      0      0      0      0    160      0      0      0      0      0      0      0      0      0      0      0      0      0      0    156      7      0      0    -30     88      0    313      0      0    100      0      0      0      0      0      0      0      0      0     52      0      0      0    118      0
      8     15     14     11     12	    398     68     31     42      6      0      0      0      0     42    104      0      0      0      0      0      0      0      0    119      0      0      0    239      0      0      0      0      0    -27      0     32    261      0      0      0      0      0      0     82     48      0      0      0      0      0      0      0      0      0      0      0      0     49      0      0      0      0      0      0      0      0      0      0      0
     10     12     14     14     14	    147     99     25     42      3      0      0    -27      0     63      0      0      0      0      0      0     -7      0      0      0      0      0      0      0      0    -19      0      0      0      0      0      0      0      0      0      0      0     41     42    -23      0      0      0      0    107     84      0      0    112      0      0      0     10      0      0      0      0      0      0      0     50      0      0    117      0
      7     13     12     13     15	    335    202     42     43      6     58    -26      0      0      0     79      0    -29      0      0    194      0      0      0      2      0    239      0      0    -20      0      0      0      0      0      0      0      0     80     57      0      0      0      0      0     68      0      0      0      0      0      0      0      0      0    118      0      0     54    -21    213    132      0      0      0      0      0      0    154      0
     11     10     14     12     11	    398     50     17     28      5      0      0      0      0      0      0      0      0    213      0      0      0      0      0     96    160      0      0    -20      0      0      0      0      0      0      0      0      0      0      0      0      0      0      0      0      0      0      0      0    289      0      0      0    152      0    193      0      0      0      0      0    286    167      0      0      0      0      0      0      0
     12     11     10     15     12	    452    275     39     40      6     80      7      0      0     17      0      0    -24      0      0    -44      0      0      0     98      0      0    -19      0      0      0      0      0      0      0    182      0    283    163      0    277      0    161      0      0      0      0      0      0      0      0      0    183      0     30    290      0      0      0      0      0      0      0      0      0      0      0      0      0      0
      8     11     15     11     14	    219     99     15     43      4      0      0      0      0      0      0      0      0      0      0    102      0      0      0      0      0      0      0      0      0      0      0      0      0      0    -10      0     63     30      0      0      0      0      0      0      0      0      0     22      0      0      0      0      0      0     11    114     77      0      7      0      0      0      0      0      0      0      0      0      0
     12     12     13     10     13	    437    135     12     12      3     10      0      0      0      0      0      0      0      0      0      0      0      0      0     83      0      0      0      0      0      0      0      0      0      0      0     28      0      0      0      0     69      0      0      0      0      0      0      0      0      0      0      0      0      0      0    -29      0      0     83      0      0      0      0      0      0    168      0      0      0
     10     15     10     12     15	    372    123     16     42      2      0      0      0    -12     77    115      0      0      0     13      0     92      0      0      0      0      0      0      0      0      0      0      0      0      0      0      0      0    236      0    215      0      0      0      0      0      0      0      4      0      0      0      0     14      0      0      0      0    170      0      0      0      0      0      0      0      0      0      0    -28
     10     15     15     10     15	    473    243     33     40      3      0    188      0      0      0      0      0      0      0    -22      0      0      0      0      0      0    -27      0      0      0      0      0      0      0      0      0      0      0     52      0      0      0    332      0      0      0      0      0      0    -68      0      0      0    250      0      0      0      0    298      0      0    -15      0      0      0      0      0      0      0      0
     10     11     12     12     12	    342    136     13     31      6      0      0      0      0     73      0      0    193      0      0      0      0    272      0      0      0      0      0      0      0    182    -10      0      0      0      0      0      0    206      0      0      0      0      0      0      0      0      0      0      0      0      0      0      0      0      0      0      0    185      0      0    -50      0      0      0      0    -11      0      0      0
     12     10     15     13     10	    103     50     40     43      6      0     55      0     -7      0      0      0      0      0      0     -2     11      0      0      0      0     32      0      0      0      0      0     28      0      0      0      0      0      0      0      0      0      0      0      0      0      0    -13      0      0      0      0      0    -16      0      0      0     17      0     29      0      0      0     17      0      0      0      0      0     45
     10     15     14     10     12	    362    177     40     44      2      0      0      0     28      0      0     56      0      0      0      0    -47      0      0      0      0    261      0      0      0    283     63      0      0      0      0      0      0      0      0      0      0      0     88      0      0      0      0    139    173      0      0      0      0      0      0     72      0      0      0      0    -21      0      0      0      0      0    -46      0      0
     11     14     14     13     15	    320     72     29     36      9     73      0      0      0      0    207      0     68      0      0      0      0      0      0      0      0      0      0     80      0    163     30      0    236     52    206      0      0      0      0      0      0      0      0      0      0      0      8      0     83    108      0      0    116      0      0      0      0      0      0      0      0      0      0      0      0      0      0      0      0
      7     12     13     10     13	    113     55     19     27      8     22      0      0      0      0      0      0      0      0      0      0      5      0      0      0      0      0      0     57      0      0      0      0      0      0      0      0      0      0      0      0      0      0      0      0      0      0     50      0      0     60     64      0     83      0      0      0     23      0      0     65      0      0      0      0      0      0      0    -21      0
      7     15     15     13     13	    391     90     38     41      9      0      0      0     20      0      0      0      0      0      0      0      0      0     24      0      0      0      0      0      0    277      0      0    215      0      0      0      0      0      0      0    109    -41      0      0      0      6      0     41      0    103      0      0      0      0      0      0      0      0      0      0      0      0      0      0      0      0      0      0    -61
     10     12     14     14     11	    138     63     24     36      7      0      0      0      0      0      0      0      0      0      0      0      0      0      0      0      0      0      0      0      0      0      0     69      0      0      0      0      0      0      0    109      0      0      0      0    -25      0      0     96    -11      0      0      0      0      0     38      0      0      0      0      0      0      0      0      0      0      0      0      0      0
      8     10     13     14     10	    473    294     10     26      6      0      0      0      0     22      0      0      0     84      0      0      0      0      0      0      0      0     41      0      0    161      0      0      0    332      0      0      0      0      0    -41      0      0      0      0     14      0      0      0     36      0      0      0      0      0      0      0      0      0      0      0      0    139     89      0      0      0      0      0      0
     11     12     10     15     15	    403    238     22     30      5     14      0      0      0      0      0      0      0      0      0      0      0      0      0      0      0      0     42      0      0      0      0      0      0      0      0      0     88      0      0      0      0      0      0      0    138      0      0     69     72      0     84      0      0      0      0      0      0      0      0     64      0      0      0      0      0      0      0      0      0
      9     12     13     12     10	    276    128     21     32      3      0    -19      0      0      0      0      0      0      0     43      0      0     95      0      0    156     82    -23      0      0      0      0      0      0      0      0      0      0      0      0      0      0      0      0      0    -38      0      0      0      0      0      0      0      0      0      0      0      0      0      0      0      0      0    106      0      0      0      0    105      0
      7     13     14     11     10	    197    102     30     31      1      0      0      0      0     20    -15      0      0     41      0      0      0      0      0     -8      7     48      0     68      0      0      0      0      0      0      0      0      0      0      0      0    -25     14    138    -38      0      0      0    -20    154      0      0      0      0      0      0      0     27      0      0    151      0      0    136      0      0      0      0      0      0
      9     10     13     12     11	    469    190     20     22      3    -21      0      0    -11     23      0    279      0      0      0      0      0      0     63      0      0      0      0      0      0      0      0      0      0      0      0      0      0      0      0      6      0      0      0      0      0      0      0     34      0      0      0      0      0      0      0      0      0      0      0      0    -61    287      0     63      0      0      0    126      0
     12     15     15     12     11	    232    101     20     22      3      0      0     35      0      0      0      0      0      0      0      0    -14      0      0      0      0      0      0      0      0      0      0      0      0      0      0    -13      0      8     50      0      0      0      0      0      0      0      0     30      0      0      0    -22      0      0      0      0      0      0      0      0      0      0      0      0      0      0      0      0      0
      8     10     13     12     12	    210    131     42     43      1      0      0      0     56      0      0      0      0      0      0    126      0      0      0      0    -30      0      0      0      0      0     22      0      4      0      0      0    139      0      0     41     96      0     69      0    -20     34     30      0      0      0      0      0      0      0      0     32     46      0      0      5      0    136      0      0    122      0      0      0      0
     12     11     15     14     14	    382     78     20     20      1      0      0      0      0      0      0     86      0      0      0      0      0      0    -26      0     88      0    107      0    289      0      0      0      0    -68      0      0    173     83      0      0    -11     36     72      0    154      0      0      0      0     43      0      0      0      0      0      0      0    195      0      0      0      0      0      0      0      0      0      0      0
      8     14     13     12     11	    144     71     29     32      9      0      0      0      0      0      0      0     56     85     58      0     62      0      0      0      0      0     84      0      0      0      0      0      0      0      0      0      0    108     60    103      0      0      0      0      0      0      0      0     43      0      0      0      0     94    -10      0      0      0      0      0      0      0      0      0     53     11     42      0      0
     10     13     13     15     15	    438     62     15     22      7    -26    -52      0      0      0      0      0      0      0      0      0      0      0      0      0    313      0      0      0      0      0      0      0      0      0      0      0      0      0     64      0      0      0     84      0      0      0      0      0      0      0      0     61      0      0      0      0      0      0      0    -33      0      0      0      0      0      0      0     10    145
      9     14     12     14     15	    452    193     11     16      1      0      0      0      0     92      0      0      0      0     88     37      0      0      0      0      0      0      0      0      0    183      0      0      0      0      0      0      0      0      0      0      0      0      0      0      0      0    -22      0      0      0     61      0      0    141      0      0      0      0      0      0     97      0      0      3      0      0    109     20    236
      9     14     15     14     11	    324    137     22     32      8      0      0      0      1      0    -32      0      0      0      0     89    194      0      0      0      0      0    112      0    152      0      0      0     14    250      0    -16      0    116     83      0      0      0      0      0      0      0      0      0      0      0      0      0      0    127      0     35      0      0      0      0      0      0      0      0      0     62      0      0      0
     10     11     12     12     10	    184     74     30     37      1      0      0      0      0      0      0      0      0      0      0      0      0      0      0      0    100      0      0      0      0     30      0      0      0      0      0      0      0      0      0      0      0      0      0      0      0      0      0      0      0     94      0    141    127      0      0      0      0      0      0      0      0    109     73      0      0      0      0      0      0
      9     10     10     12     11	    451    283     20     45      3      0      0      0      0      0      0      0      0    142      0      0      0      0      0      0      0      0      0    118    193    290     11      0      0      0      0      0      0      0      0      0     38      0      0      0      0      0      0      0      0    -10      0      0      0      0      0     90      0    316     12      0      0      0      0      0      0      0      0      0      0
      9     11     13     14     14	    144     56     44     45     10      0      0      0      0     70      0    106      0      0      0     37      0      0      0      0      0      0      0      0      0      0    114    -29      0      0      0      0     72      0      0      0      0      0      0      0      0      0      0     32      0      0      0      0     35      0     90      0      0      0      0      0     14      0      0      0      0      0      2      0      0
      7     13     13     15     11	    102     68     22     33      4      0      0      0      0      0      0      0      0     73      0      0    -20      0      0      0      0      0     10      0      0      0     77      0      0      0      0     17      0      0     23      0      0      0      0      0     27      0      0     46      0      0      0      0      0      0      0      0      0     14      0      0      0      0      0     53    -14      0      0      0      0
      9     13     11     12     12	    408    198     12     13      5      0      0      0      0      0    -57      0      0      0      0      0      0      0      0      0      0     49      0     54      0      0      0      0    170    298    185      0      0      0      0      0      0      0      0      0      0      0      0      0    195      0      0      0      0      0    316      0     14      0     81      0      0      0      0      0      0      0      0      0      0
      7     12     11     13     12	    117     65     18     39      5     43      0     -8      0      0      0      0      0      0      0     63      0      0      0      0      0      0      0    -21      0      0      7     83      0      0      0     29      0      0      0      0      0      0      0      0      0      0      0      0      0      0      0      0      0      0     12      0      0     81      0      0      0      0      0      0      0      0      0     48      4
      8     13     15     15     15	    337    166     24     45      1      8      0      0      0      0      0      0      0      0      0      0      0      0      0     52      0      0      0    213      0      0      0      0      0      0      0      0      0      0     65      0      0      0     64      0    151      0      0      5      0      0    -33      0      0      0      0      0      0      0      0      0    253      0     58      0      0      0      0    147    119
     11     14     10     14     15	    395    155     26     30      8      0      0      0      0      0    143      0      0     12      0      0      0    124      0     66      0      0      0    132    286      0      0      0      0    -15    -50      0    -21      0      0      0      0      0      0      0      0    -61      0      0      0      0      0     97      0      0      0     14      0      0      0    253      0      0     26      0      0      0      0     55      0
     11     13     15     12     15	    383    254     32     43      7      0      0      0      0      0      0    260      0      0      0     56      0      0      0     28      0      0      0      0    167      0      0      0      0      0      0      0      0      0      0      0      0    139      0      0      0    287      0    136      0      0      0      0      0    109      0      0      0      0      0      0      0      0      0      0      0      0      0      0    155
     11     12     10     15     15	    188     78     43     44      9      0     -4      0      0     82      0      0      0      0     37    -20      0      0      0      0      0      0      0      0      0      0      0      0      0      0      0     17      0      0      0      0      0     89      0    106    136      0      0      0      0      0      0      0      0     73      0      0      0      0      0     58     26      0      0     40      0      0      0      0      0
      7     10     13     13     10	    127     84     44     45      6      0      0     17      0      0      0      0      0     92      0     33      0     22      0      0     52      0      0      0      0      0      0      0      0      0      0      0      0      0      0      0      0      0      0      0      0     63      0      0      0      0      0      3      0      0      0      0     53      0      0      0      0      0     40      0     92      0     15     42     -4
      8     10     12     12     10	    332    203     37     44      8      0    -49      0     72      0      0      0    -24      0      0     39      0      0      0    145      0      0     50      0      0      0      0      0      0      0      0      0      0      0      0      0      0      0      0      0      0      0      0    122      0     53      0      0      0      0      0      0    -14      0      0      0      0      0      0     92      0    -15      0      0      0
      8     15     15     10     12	    241     94     23     38      4      0      0      0      0     21      0      0      0      0      0      0      0      0      0      0      0      0      0      0      0      0      0    168      0      0    -11      0      0      0      0      0      0      0      0      0      0      0      0      0      0     11      0      0     62      0      0      0      0      0      0      0      0      0      0      0    -15      0      0      0      0
      7     11     12     11     14	    245     88     19     39      7      0      0      0     30      0      0      0      0      0    -12      0      0      0      0      0      0      0      0      0      0      0      0      0      0      0      0      0    -46      0      0      0      0      0      0      0      0      0      0      0      0     42      0    109      0      0      0      2      0      0      0      0      0      0      0     15      0      0      0      0      0
     12     13     15     12     15	    360    168     42     42      3      0      0      0     -8      0      0      0      0      0      6      0      0      0      0      0    118      0    117    154      0      0      0      0      0      0      0      0      0      0    -21      0      0      0      0    105      0    126      0      0      0      0     10     20      0      0      0      0      0      0     48    147     55      0      0     42      0      0      0      0      0
      8     10     10     10     15	    478    174     22     27      5      0      0      0      0      0      0      0      0      0      0      0      0      0     47      0      0      0      0      0      0      0      0      0    -28      0      0     45      0      0      0    -61      0      0      0      0      0      0      0      0      0      0    145    236      0      0      0      0      0      0      4    119      0    155      0     -4      0      0      0      0      0